p cnf 7230 17
1037 -1039 0
855 -1041 0
1042 -1044 0
887 -1039 0
855 -1044 0
-855 -1042 1043 0
-887 -1037 1038 0
-855 -1037 1040 0
-1038 1039 0
-1043 1044 0
-1040 1041 0
1037 -1041 0
-887 -1042 1046 0
-1035 1036 0
1035 -1036 0
1042 -1046 0
887 -1046 0
